WARNING: for repeatability, setting FPU to use double precision
============================[ Problem Statistics ]=============================
|                                                                             |
|  Number of variables:           100                                         |
|  Number of clauses:             449                                         |
|  Parse time:                   0.00 s                                       |
|  Eliminated clauses:           0.00 Mb                                      |
|  Simplification time:          0.00 s                                       |
|                                                                             |
============================[ Search Statistics ]==============================
| Conflicts |          ORIGINAL         |          LEARNT          | Progress |
|           |    Vars  Clauses Literals |    Limit  Clauses Lit/Cl |          |
===============================================================================
|       100 |      98      443     1336 |      162      100      7 |  0.010 % |
|       250 |      98      443     1336 |      178      166      7 |  0.010 % |
===============================================================================
restarts              : 4
conflicts             : 456            (98361 /sec)
decisions             : 581            (0.00 % random) (125324 /sec)
propagations          : 11255          (2427739 /sec)
conflict literals     : 2993           (21.36 % deleted)
Memory used           : 13.00 MB
CPU time              : 0.004636 s

SATISFIABLE
